161 5
10 10 10 10 10 

0 0 0 0 0 0 5 2 24 46 58 80 
0 0 0 0 0 0 2 3 22 
6 0 1 0 1 0 1 4 
1 0 6 0 3 0 2 8 5 
6 0 4 0 5 0 1 6 
3 0 3 0 4 0 2 14 7 
5 0 6 0 2 0 4 20 19 11 9 
2 0 3 0 4 0 6 20 19 18 17 16 13 
5 0 4 0 8 0 1 10 
8 0 2 0 5 0 2 18 12 
9 0 3 0 9 0 2 18 12 
8 0 9 0 8 0 3 17 16 13 
1 0 7 0 3 0 1 15 
7 0 7 0 5 0 1 21 
3 0 4 0 5 0 1 23 
3 0 5 0 4 0 1 23 
2 0 4 0 9 0 1 23 
7 0 7 0 3 0 2 23 90 
4 0 7 0 7 0 1 23 
9 0 6 0 5 0 1 23 
4 0 5 0 5 0 1 23 
8 0 7 0 5 0 1 23 
0 0 0 0 0 0 1 126 
0 0 0 0 0 0 1 25 
9 0 1 1 0 0 1 26 
10 0 2 8 0 0 2 28 27 
8 0 2 3 0 0 2 31 29 
3 0 5 2 0 0 1 29 
5 0 4 3 0 0 2 32 30 
4 0 3 5 0 0 3 35 34 33 
8 0 5 4 0 0 2 33 32 
7 0 3 5 0 0 3 39 37 36 
7 0 8 4 0 0 2 37 36 
7 0 6 6 0 0 2 39 37 
7 0 7 10 0 0 1 36 
5 0 4 10 0 0 2 40 38 
9 0 9 7 0 0 3 40 38 95 
10 0 4 5 0 0 2 44 41 
3 0 10 5 0 0 2 44 40 
4 0 3 4 0 0 2 43 42 
9 0 7 6 0 0 2 43 42 
9 0 8 6 0 0 1 45 
10 0 4 4 0 0 1 45 
8 0 5 2 0 0 1 45 
0 0 0 0 0 0 1 126 
0 0 0 0 0 0 1 47 
5 0 1 0 0 0 2 51 48 
10 0 2 0 0 0 2 50 49 
4 0 8 0 0 0 4 56 55 53 52 
6 0 5 0 0 0 4 56 55 53 52 
10 0 5 0 0 0 4 55 53 52 59 
6 0 8 0 0 0 1 54 
5 0 7 0 0 0 1 54 
4 0 5 0 0 0 1 57 
6 0 5 0 0 0 1 57 
2 0 4 0 0 0 1 57 
0 0 0 0 0 0 2 102 114 
0 0 0 0 0 0 3 59 78 119 
7 1 0 1 0 0 2 77 60 
10 7 0 3 0 0 1 61 
9 5 0 4 0 0 3 76 68 62 
9 4 0 4 0 0 3 75 74 63 
4 4 0 5 0 0 1 64 
8 3 0 5 0 0 1 65 
4 2 0 7 0 0 4 72 71 70 66 
8 4 0 7 0 0 1 67 
7 5 0 4 0 0 1 69 
4 5 0 4 0 0 1 73 
10 8 0 6 0 0 1 79 
1 5 0 3 0 0 1 79 
4 5 0 7 0 0 1 79 
7 7 0 4 0 0 1 79 
7 5 0 3 0 0 1 79 
10 4 0 10 0 0 1 79 
5 8 0 10 0 0 1 79 
6 6 0 7 0 0 1 79 
5 6 0 3 0 0 1 79 
4 6 0 3 0 0 1 79 
0 0 0 0 0 0 1 126 
0 0 0 0 0 0 9 81 93 94 95 96 97 98 99 100 
1 0 0 1 1 0 1 82 
8 0 0 4 5 0 3 92 91 83 
10 0 0 2 6 0 2 84 123 
1 0 0 3 3 0 1 85 
8 0 0 4 4 0 1 86 
5 0 0 2 1 0 1 87 
4 0 0 4 7 0 1 88 
7 0 0 10 4 0 1 89 
2 0 0 2 5 0 1 90 
5 0 0 9 7 0 1 101 
1 0 0 3 7 0 1 101 
3 0 0 4 8 0 1 101 
5 0 0 9 4 0 1 101 
5 0 0 4 8 0 1 101 
2 0 0 4 4 0 1 101 
2 0 0 4 4 0 1 101 
5 0 0 10 5 0 1 101 
6 0 0 8 3 0 1 101 
8 0 0 5 7 0 1 101 
6 0 0 8 7 0 1 101 
0 0 0 0 0 0 1 126 
0 0 0 0 0 0 2 103 104 
10 1 0 0 0 0 3 109 106 105 
4 2 0 0 0 0 3 112 109 108 
4 10 0 0 0 0 3 108 107 123 
5 6 0 0 0 0 2 112 110 
8 5 0 0 0 0 2 112 111 
8 7 0 0 0 0 1 110 
5 4 0 0 0 0 1 110 
2 5 0 0 0 0 1 111 
10 5 0 0 0 0 1 113 
7 5 0 0 0 0 1 113 
0 0 0 0 0 0 1 126 
0 0 0 0 0 0 3 115 117 120 
3 0 1 0 0 0 2 118 116 
9 0 6 0 0 0 2 123 119 
10 0 5 0 0 0 2 123 119 
3 0 7 0 0 0 2 124 123 
4 0 7 0 0 0 1 121 
4 0 5 0 0 0 1 122 
7 0 3 0 0 0 1 124 
6 0 5 0 0 0 1 123 
8 0 5 0 0 0 1 125 
2 0 6 0 0 0 1 125 
0 0 0 0 0 0 1 126 
0 0 0 0 0 0 5 127 131 134 135 136 
3 0 0 0 1 0 2 133 128 
9 0 0 0 2 0 1 129 
9 0 0 0 8 0 1 130 
2 0 0 0 5 0 1 132 
2 0 0 0 7 0 1 133 
10 0 0 0 10 0 1 137 
2 0 0 0 4 0 1 137 
10 0 0 0 3 0 1 137 
10 0 0 0 2 0 1 137 
7 0 0 0 8 0 1 137 
0 0 0 0 0 0 1 138 
0 0 0 0 0 0 2 139 142 
2 1 0 0 0 0 3 148 147 140 
7 5 0 0 0 0 1 141 
2 8 0 0 0 0 3 146 145 143 
9 8 0 0 0 0 2 148 147 
10 3 0 0 0 0 1 144 
6 4 0 0 0 0 1 149 
7 6 0 0 0 0 1 149 
10 3 0 0 0 0 1 149 
10 4 0 0 0 0 1 149 
8 8 0 0 0 0 1 149 
0 0 0 0 0 0 1 150 
0 0 0 0 0 0 4 151 152 153 157 
6 0 0 0 0 1 2 156 155 
8 0 0 0 0 8 1 154 
2 0 0 0 0 3 1 154 
9 0 0 0 0 5 1 155 
7 0 0 0 0 4 1 158 
7 0 0 0 0 5 1 158 
8 0 0 0 0 7 1 158 
10 0 0 0 0 2 2 160 159 
4 0 0 0 0 7 1 161 
1 0 0 0 0 8 1 161 
0 0 0 0 0 0 0 
